\ This file has been generated by DOcplex
\ ENCODING=ISO-8859-1
\Problem name: relay4 problem

Maximize
 obj: [ - 7.706821480406 a0_u0*a1_u0_x3 - 104.853410740203 a0_u0*a1_u1_x3
      - 6.853410740203 a0_u0*a1_u2_x3 - 104 a0_u1*a1_u0_x3 - 104 a0_u1*a1_u1_x3
      - 104 a0_u1*a1_u2_x3 - 6 a0_u2*a1_u0_x3 - 104 a0_u2*a1_u1_x3
      - 6 a0_u2*a1_u2_x3 ]/2
Subject To
 c1: 44 aj_u0_x3 - 33 aj_u1_x3 + 44 aj_u2_x3 + 4 aj_u3_x3 - 23 aj_u4_x3
     - 47 aj_u5_x3 + 33 aj_u6_x3 - 22 aj_u7_x3 - 50 aj_u8_x3 - 44 a0_u0
     - 4 a0_u1 - 33 a0_u2 >= 0
 c2: 44 aj_u0_x3 - 33 aj_u1_x3 + 44 aj_u2_x3 + 4 aj_u3_x3 - 23 aj_u4_x3
     - 47 aj_u5_x3 + 33 aj_u6_x3 - 22 aj_u7_x3 - 50 aj_u8_x3 + 33 a0_u0
     + 23 a0_u1 + 22 a0_u2 >= 0
 c3: 44 aj_u0_x3 - 33 aj_u1_x3 + 44 aj_u2_x3 + 4 aj_u3_x3 - 23 aj_u4_x3
     - 47 aj_u5_x3 + 33 aj_u6_x3 - 22 aj_u7_x3 - 50 aj_u8_x3 - 44 a0_u0
     + 47 a0_u1 + 50 a0_u2 >= 0
 c4: a0_u0 + a0_u1 + a0_u2 = 1
 c5: a1_u0_x0 + a1_u1_x0 + a1_u2_x0 = 1
 c6: aj_u0_x0 + aj_u1_x0 + aj_u2_x0 + aj_u3_x0 + aj_u4_x0 + aj_u5_x0 + aj_u6_x0
     + aj_u7_x0 + aj_u8_x0 = 1
 c7: a1_u0_x1 + a1_u1_x1 + a1_u2_x1 = 1
 c8: aj_u0_x1 + aj_u1_x1 + aj_u2_x1 + aj_u3_x1 + aj_u4_x1 + aj_u5_x1 + aj_u6_x1
     + aj_u7_x1 + aj_u8_x1 = 1
 c9: a1_u0_x2 + a1_u1_x2 + a1_u2_x2 = 1
 c10: aj_u0_x2 + aj_u1_x2 + aj_u2_x2 + aj_u3_x2 + aj_u4_x2 + aj_u5_x2 + aj_u6_x2
      + aj_u7_x2 + aj_u8_x2 = 1
 c11: a1_u0_x3 + a1_u1_x3 + a1_u2_x3 = 1
 c12: aj_u0_x3 + aj_u1_x3 + aj_u2_x3 + aj_u3_x3 + aj_u4_x3 + aj_u5_x3 + aj_u6_x3
      + aj_u7_x3 + aj_u8_x3 = 1
 c13: aj_u0_x0 + aj_u1_x0 + aj_u2_x0 - a0_u0 = 0
 c14: aj_u3_x0 + aj_u4_x0 + aj_u5_x0 - a0_u1 = 0
 c15: aj_u6_x0 + aj_u7_x0 + aj_u8_x0 - a0_u2 = 0
 c16: aj_u0_x1 + aj_u1_x1 + aj_u2_x1 - a0_u0 = 0
 c17: aj_u3_x1 + aj_u4_x1 + aj_u5_x1 - a0_u1 = 0
 c18: aj_u6_x1 + aj_u7_x1 + aj_u8_x1 - a0_u2 = 0
 c19: aj_u0_x2 + aj_u1_x2 + aj_u2_x2 - a0_u0 = 0
 c20: aj_u3_x2 + aj_u4_x2 + aj_u5_x2 - a0_u1 = 0
 c21: aj_u6_x2 + aj_u7_x2 + aj_u8_x2 - a0_u2 = 0
 c22: aj_u0_x3 + aj_u1_x3 + aj_u2_x3 - a0_u0 = 0
 c23: aj_u3_x3 + aj_u4_x3 + aj_u5_x3 - a0_u1 = 0
 c24: aj_u6_x3 + aj_u7_x3 + aj_u8_x3 - a0_u2 = 0
 c25: aj_u0_x0 + aj_u3_x0 + aj_u6_x0 - a1_u0_x0 = 0
 c26: aj_u1_x0 + aj_u4_x0 + aj_u7_x0 - a1_u1_x0 = 0
 c27: aj_u2_x0 + aj_u5_x0 + aj_u8_x0 - a1_u2_x0 = 0
 c28: aj_u0_x1 + aj_u3_x1 + aj_u6_x1 - a1_u0_x1 = 0
 c29: aj_u1_x1 + aj_u4_x1 + aj_u7_x1 - a1_u1_x1 = 0
 c30: aj_u2_x1 + aj_u5_x1 + aj_u8_x1 - a1_u2_x1 = 0
 c31: aj_u0_x2 + aj_u3_x2 + aj_u6_x2 - a1_u0_x2 = 0
 c32: aj_u1_x2 + aj_u4_x2 + aj_u7_x2 - a1_u1_x2 = 0
 c33: aj_u2_x2 + aj_u5_x2 + aj_u8_x2 - a1_u2_x2 = 0
 c34: aj_u0_x3 + aj_u3_x3 + aj_u6_x3 - a1_u0_x3 = 0
 c35: aj_u1_x3 + aj_u4_x3 + aj_u7_x3 - a1_u1_x3 = 0
 c36: aj_u2_x3 + aj_u5_x3 + aj_u8_x3 - a1_u2_x3 = 0

Bounds
       a0_u0 <= 1
       a0_u1 <= 1
       a0_u2 <= 1
 0 <= a1_u0_x0 <= 1
 0 <= a1_u1_x0 <= 1
 0 <= a1_u2_x0 <= 1
       aj_u0_x0 <= 1
       aj_u1_x0 <= 1
       aj_u2_x0 <= 1
       aj_u3_x0 <= 1
       aj_u4_x0 <= 1
       aj_u5_x0 <= 1
       aj_u6_x0 <= 1
       aj_u7_x0 <= 1
       aj_u8_x0 <= 1
 0 <= a1_u0_x1 <= 1
 0 <= a1_u1_x1 <= 1
 0 <= a1_u2_x1 <= 1
       aj_u0_x1 <= 1
       aj_u1_x1 <= 1
       aj_u2_x1 <= 1
       aj_u3_x1 <= 1
       aj_u4_x1 <= 1
       aj_u5_x1 <= 1
       aj_u6_x1 <= 1
       aj_u7_x1 <= 1
       aj_u8_x1 <= 1
 0 <= a1_u0_x2 <= 1
 0 <= a1_u1_x2 <= 1
 0 <= a1_u2_x2 <= 1
       aj_u0_x2 <= 1
       aj_u1_x2 <= 1
       aj_u2_x2 <= 1
       aj_u3_x2 <= 1
       aj_u4_x2 <= 1
       aj_u5_x2 <= 1
       aj_u6_x2 <= 1
       aj_u7_x2 <= 1
       aj_u8_x2 <= 1
 0 <= a1_u0_x3 <= 1
 0 <= a1_u1_x3 <= 1
 0 <= a1_u2_x3 <= 1
       aj_u0_x3 <= 1
       aj_u1_x3 <= 1
       aj_u2_x3 <= 1
       aj_u3_x3 <= 1
       aj_u4_x3 <= 1
       aj_u5_x3 <= 1
       aj_u6_x3 <= 1
       aj_u7_x3 <= 1
       aj_u8_x3 <= 1

Binaries
 a1_u0_x0 a1_u1_x0 a1_u2_x0 a1_u0_x1 a1_u1_x1 a1_u2_x1 a1_u0_x2 a1_u1_x2
 a1_u2_x2 a1_u0_x3 a1_u1_x3 a1_u2_x3
End
